(set-logic QF_NRA)
(set-info :source |Benchmarks generated from hycomp (https://es-static.fbk.eu/tools/hycomp/). BMC instances of non-linear hybrid automata taken from: Alessandro Cimatti, Sergio Mover, Stefano Tonetta, A quantifier-free SMT encoding of non-linear hybrid automata, FMCAD 2012 and Alessandro Cimatti, Sergio Mover, Stefano Tonetta, Quantier-free encoding of invariants for Hybrid Systems, Formal Methods in System Design. This instance solves a BMC problem of depth 3 and uses the quantifier free encoding with equivalences encoding. Contacts: Sergio Mover (mover@fbk.eu), Stefano Tonetta (tonettas@fbk.eu), Alessandro Cimatti (cimatti@fbk.eu).|)
(set-info :smt-lib-version 2.0)
(set-info :category "industrial")
(set-info :status unsat)
;; MathSAT API call trace
;; generated on Mon Mar 19 10:45:26 2012
(declare-fun b.x__AT2 () Real)
(declare-fun b.EVENT.0__AT2 () Bool)
(declare-fun b.y__AT3 () Real)
(declare-fun b.EVENT.1__AT2 () Bool)
(declare-fun b.counter.0__AT3 () Bool)
(declare-fun b.y__AT0 () Real)
(declare-fun b.counter.1__AT3 () Bool)
(declare-fun b.counter.0__AT0 () Bool)
(declare-fun b.x__AT3 () Real)
(declare-fun b.EVENT.0__AT0 () Bool)
(declare-fun b.counter.3__AT0 () Bool)
(declare-fun b.counter.2__AT3 () Bool)
(declare-fun b.counter.1__AT0 () Bool)
(declare-fun b.event_is_timed__AT1 () Bool)
(declare-fun b.speed_y__AT2 () Real)
(declare-fun b.bool_atom__AT1 () Bool)
(declare-fun b.EVENT.1__AT3 () Bool)
(declare-fun b.counter.3__AT3 () Bool)
(declare-fun b.bool_atom__AT3 () Bool)
(declare-fun b.speed_y__AT3 () Real)
(declare-fun b.g__AT0 () Real)
(declare-fun b.speed_y__AT0 () Real)
(declare-fun b.x__AT1 () Real)
(declare-fun b.y__AT1 () Real)
(declare-fun b.counter.2__AT0 () Bool)
(declare-fun b.counter.0__AT1 () Bool)
(declare-fun b.counter.1__AT1 () Bool)
(declare-fun b.counter.2__AT1 () Bool)
(declare-fun b.event_is_timed__AT0 () Bool)
(declare-fun b.time__AT3 () Real)
(declare-fun b.counter.3__AT1 () Bool)
(declare-fun b.bool_atom__AT0 () Bool)
(declare-fun b.delta__AT3 () Real)
(declare-fun b.x__AT0 () Real)
(declare-fun b.event_is_timed__AT2 () Bool)
(declare-fun b.EVENT.0__AT3 () Bool)
(declare-fun b.counter.0__AT2 () Bool)
(declare-fun b.delta__AT1 () Real)
(declare-fun b.counter.1__AT2 () Bool)
(declare-fun b.speed_y__AT1 () Real)
(declare-fun b.time__AT1 () Real)
(declare-fun b.EVENT.0__AT1 () Bool)
(declare-fun b.counter.2__AT2 () Bool)
(declare-fun b.bool_atom__AT2 () Bool)
(declare-fun b.time__AT0 () Real)
(declare-fun b.y__AT2 () Real)
(declare-fun b.EVENT.1__AT1 () Bool)
(declare-fun b.counter.3__AT2 () Bool)
(declare-fun b.event_is_timed__AT3 () Bool)
(declare-fun b.time__AT2 () Real)
(declare-fun b.delta__AT0 () Real)
(declare-fun b.EVENT.1__AT0 () Bool)
(declare-fun b.delta__AT2 () Real)
(assert (let ((.def_66 (* (- 1.0) b.g__AT0)))
(let ((.def_69 (* (/ 1 2) .def_66)))
(let ((.def_82 (* 2.0 .def_69)))
(let ((.def_630 (* .def_82 b.delta__AT3)))
(let ((.def_631 (+ b.speed_y__AT3 .def_630)))
(let ((.def_635 (<= .def_631 0.0 )))
(let ((.def_634 (<= b.speed_y__AT3 0.0 )))
(let ((.def_636 (and .def_634 .def_635)))
(let ((.def_632 (<= 0.0 .def_631)))
(let ((.def_629 (<= 0.0 b.speed_y__AT3)))
(let ((.def_633 (and .def_629 .def_632)))
(let ((.def_637 (or .def_633 .def_636)))
(let ((.def_620 (* b.speed_y__AT3 b.delta__AT3)))
(let ((.def_618 (* b.delta__AT3 b.delta__AT3)))
(let ((.def_619 (* .def_69 .def_618)))
(let ((.def_621 (+ .def_619 .def_620)))
(let ((.def_606 (* (- 1.0) b.x__AT3)))
(let ((.def_607 (* b.x__AT3 .def_606)))
(let ((.def_622 (* (- 1.0) .def_607)))
(let ((.def_625 (+ .def_622 .def_621)))
(let ((.def_626 (+ b.y__AT3 .def_625)))
(let ((.def_627 (<= 0.0 .def_626)))
(let ((.def_608 (<= .def_607 b.y__AT3)))
(let ((.def_628 (and .def_608 .def_627)))
(let ((.def_638 (and .def_628 .def_637)))
(let ((.def_58 (<= b.g__AT0 10.0 )))
(let ((.def_57 (<= 8.0 b.g__AT0)))
(let ((.def_59 (and .def_57 .def_58)))
(let ((.def_639 (and .def_59 .def_638)))
(let ((.def_345 (not b.counter.0__AT2)))
(let ((.def_612 (or b.counter.1__AT2 .def_345)))
(let ((.def_340 (not b.counter.2__AT2)))
(let ((.def_613 (or .def_340 .def_612)))
(let ((.def_614 (or b.counter.3__AT2 .def_613)))
(let ((.def_609 (and .def_59 .def_608)))
(let ((.def_603 (not b.EVENT.0__AT3)))
(let ((.def_601 (not b.EVENT.1__AT3)))
(let ((.def_604 (or .def_601 .def_603)))
(let ((.def_515 (not b.counter.1__AT3)))
(let ((.def_4 (not b.counter.0__AT3)))
(let ((.def_594 (or .def_4 .def_515)))
(let ((.def_598 (or b.counter.3__AT3 .def_594)))
(let ((.def_595 (or b.counter.2__AT3 .def_594)))
(let ((.def_8 (not b.counter.2__AT3)))
(let ((.def_593 (or .def_4 .def_8)))
(let ((.def_596 (and .def_593 .def_595)))
(let ((.def_532 (not b.counter.3__AT3)))
(let ((.def_597 (or .def_532 .def_596)))
(let ((.def_599 (and .def_597 .def_598)))
(let ((.def_605 (and .def_599 .def_604)))
(let ((.def_610 (and .def_605 .def_609)))
(let ((.def_588 (<= 0.0 b.delta__AT2)))
(let ((.def_425 (not b.EVENT.0__AT2)))
(let ((.def_423 (not b.EVENT.1__AT2)))
(let ((.def_463 (and .def_423 .def_425)))
(let ((.def_465 (not .def_463)))
(let ((.def_589 (or .def_465 .def_588)))
(let ((.def_590 (or b.EVENT.1__AT2 .def_589)))
(let ((.def_500 (= b.bool_atom__AT2 b.bool_atom__AT3)))
(let ((.def_496 (= b.counter.0__AT3 b.counter.0__AT2)))
(let ((.def_494 (= b.counter.1__AT3 b.counter.1__AT2)))
(let ((.def_492 (= b.counter.2__AT3 b.counter.2__AT2)))
(let ((.def_491 (= b.counter.3__AT3 b.counter.3__AT2)))
(let ((.def_493 (and .def_491 .def_492)))
(let ((.def_495 (and .def_493 .def_494)))
(let ((.def_497 (and .def_495 .def_496)))
(let ((.def_584 (and .def_497 .def_500)))
(let ((.def_585 (or .def_465 .def_584)))
(let ((.def_586 (or b.EVENT.1__AT2 .def_585)))
(let ((.def_573 (* .def_66 b.delta__AT2)))
(let ((.def_574 (* (- 1.0) b.speed_y__AT3)))
(let ((.def_577 (+ .def_574 .def_573)))
(let ((.def_578 (+ b.speed_y__AT2 .def_577)))
(let ((.def_579 (= .def_578 0.0 )))
(let ((.def_564 (* (- 1.0) b.y__AT3)))
(let ((.def_442 (* b.speed_y__AT2 b.delta__AT2)))
(let ((.def_568 (+ .def_442 .def_564)))
(let ((.def_440 (* b.delta__AT2 b.delta__AT2)))
(let ((.def_441 (* .def_69 .def_440)))
(let ((.def_569 (+ .def_441 .def_568)))
(let ((.def_570 (+ b.y__AT2 .def_569)))
(let ((.def_571 (= .def_570 0.0 )))
(let ((.def_483 (= b.x__AT2 b.x__AT3)))
(let ((.def_572 (and .def_483 .def_571)))
(let ((.def_580 (and .def_572 .def_579)))
(let ((.def_581 (or .def_465 .def_580)))
(let ((.def_486 (= b.y__AT2 b.y__AT3)))
(let ((.def_559 (and .def_483 .def_486)))
(let ((.def_489 (= b.speed_y__AT2 b.speed_y__AT3)))
(let ((.def_560 (and .def_489 .def_559)))
(let ((.def_556 (= b.delta__AT2 0.0 )))
(let ((.def_557 (and .def_463 .def_556)))
(let ((.def_558 (not .def_557)))
(let ((.def_561 (or .def_558 .def_560)))
(let ((.def_562 (or b.EVENT.1__AT2 .def_561)))
(let ((.def_549 (and .def_489 .def_497)))
(let ((.def_550 (or b.bool_atom__AT2 .def_549)))
(let ((.def_524 (or .def_4 b.counter.0__AT2)))
(let ((.def_523 (or b.counter.0__AT3 .def_345)))
(let ((.def_525 (and .def_523 .def_524)))
(let ((.def_526 (and .def_515 .def_525)))
(let ((.def_527 (or b.counter.1__AT2 .def_526)))
(let ((.def_335 (not b.counter.1__AT2)))
(let ((.def_522 (or b.counter.1__AT3 .def_335)))
(let ((.def_528 (and .def_522 .def_527)))
(let ((.def_540 (and .def_8 .def_528)))
(let ((.def_541 (or b.counter.2__AT2 .def_540)))
(let ((.def_535 (and .def_345 .def_515)))
(let ((.def_536 (or b.counter.1__AT2 .def_535)))
(let ((.def_537 (and .def_522 .def_536)))
(let ((.def_538 (and b.counter.2__AT3 .def_537)))
(let ((.def_539 (or .def_340 .def_538)))
(let ((.def_542 (and .def_539 .def_541)))
(let ((.def_543 (and b.counter.3__AT3 .def_542)))
(let ((.def_544 (or b.counter.3__AT2 .def_543)))
(let ((.def_529 (and b.counter.2__AT3 .def_528)))
(let ((.def_530 (or b.counter.2__AT2 .def_529)))
(let ((.def_518 (or b.counter.1__AT3 b.counter.1__AT2)))
(let ((.def_516 (and b.counter.0__AT3 .def_515)))
(let ((.def_517 (or .def_335 .def_516)))
(let ((.def_519 (and .def_517 .def_518)))
(let ((.def_520 (and .def_8 .def_519)))
(let ((.def_521 (or .def_340 .def_520)))
(let ((.def_531 (and .def_521 .def_530)))
(let ((.def_533 (and .def_531 .def_532)))
(let ((.def_354 (not b.counter.3__AT2)))
(let ((.def_534 (or .def_354 .def_533)))
(let ((.def_545 (and .def_534 .def_544)))
(let ((.def_512 (* b.speed_y__AT3 b.speed_y__AT3)))
(let ((.def_332 (* b.speed_y__AT2 b.speed_y__AT2)))
(let ((.def_513 (= .def_332 .def_512)))
(let ((.def_510 (+ b.speed_y__AT2 b.speed_y__AT3)))
(let ((.def_511 (= .def_510 0.0 )))
(let ((.def_514 (and .def_511 .def_513)))
(let ((.def_546 (and .def_514 .def_545)))
(let ((.def_509 (not b.bool_atom__AT2)))
(let ((.def_547 (or .def_509 .def_546)))
(let ((.def_451 (<= 0.0 b.speed_y__AT2)))
(let ((.def_506 (not .def_451)))
(let ((.def_428 (* (- 1.0) b.x__AT2)))
(let ((.def_429 (* b.x__AT2 .def_428)))
(let ((.def_505 (= b.y__AT2 .def_429)))
(let ((.def_507 (and .def_505 .def_506)))
(let ((.def_508 (= b.bool_atom__AT2 .def_507)))
(let ((.def_548 (and .def_508 .def_547)))
(let ((.def_551 (and .def_548 .def_550)))
(let ((.def_552 (and .def_483 .def_551)))
(let ((.def_553 (and .def_486 .def_552)))
(let ((.def_554 (or .def_463 .def_553)))
(let ((.def_555 (or b.EVENT.1__AT2 .def_554)))
(let ((.def_563 (and .def_555 .def_562)))
(let ((.def_582 (and .def_563 .def_581)))
(let ((.def_470 (= b.time__AT2 b.time__AT3)))
(let ((.def_484 (and .def_470 .def_483)))
(let ((.def_487 (and .def_484 .def_486)))
(let ((.def_490 (and .def_487 .def_489)))
(let ((.def_498 (and .def_490 .def_497)))
(let ((.def_501 (and .def_498 .def_500)))
(let ((.def_502 (or .def_423 .def_501)))
(let ((.def_473 (* (- 1.0) b.time__AT3)))
(let ((.def_476 (+ b.delta__AT2 .def_473)))
(let ((.def_477 (+ b.time__AT2 .def_476)))
(let ((.def_478 (= .def_477 0.0 )))
(let ((.def_479 (or .def_465 .def_478)))
(let ((.def_480 (or b.EVENT.1__AT2 .def_479)))
(let ((.def_471 (or .def_463 .def_470)))
(let ((.def_472 (or b.EVENT.1__AT2 .def_471)))
(let ((.def_481 (and .def_472 .def_480)))
(let ((.def_503 (and .def_481 .def_502)))
(let ((.def_467 (= .def_465 b.event_is_timed__AT3)))
(let ((.def_464 (= b.event_is_timed__AT2 .def_463)))
(let ((.def_468 (and .def_464 .def_467)))
(let ((.def_504 (and .def_468 .def_503)))
(let ((.def_583 (and .def_504 .def_582)))
(let ((.def_587 (and .def_583 .def_586)))
(let ((.def_591 (and .def_587 .def_590)))
(let ((.def_592 (and .def_423 .def_591)))
(let ((.def_611 (and .def_592 .def_610)))
(let ((.def_615 (and .def_611 .def_614)))
(let ((.def_452 (* .def_82 b.delta__AT2)))
(let ((.def_453 (+ b.speed_y__AT2 .def_452)))
(let ((.def_457 (<= .def_453 0.0 )))
(let ((.def_456 (<= b.speed_y__AT2 0.0 )))
(let ((.def_458 (and .def_456 .def_457)))
(let ((.def_454 (<= 0.0 .def_453)))
(let ((.def_455 (and .def_451 .def_454)))
(let ((.def_459 (or .def_455 .def_458)))
(let ((.def_443 (+ .def_441 .def_442)))
(let ((.def_444 (* (- 1.0) .def_429)))
(let ((.def_447 (+ .def_444 .def_443)))
(let ((.def_448 (+ b.y__AT2 .def_447)))
(let ((.def_449 (<= 0.0 .def_448)))
(let ((.def_430 (<= .def_429 b.y__AT2)))
(let ((.def_450 (and .def_430 .def_449)))
(let ((.def_460 (and .def_450 .def_459)))
(let ((.def_461 (and .def_59 .def_460)))
(let ((.def_162 (not b.counter.0__AT1)))
(let ((.def_434 (or b.counter.1__AT1 .def_162)))
(let ((.def_157 (not b.counter.2__AT1)))
(let ((.def_435 (or .def_157 .def_434)))
(let ((.def_436 (or b.counter.3__AT1 .def_435)))
(let ((.def_431 (and .def_59 .def_430)))
(let ((.def_426 (or .def_423 .def_425)))
(let ((.def_416 (or .def_335 .def_345)))
(let ((.def_420 (or b.counter.3__AT2 .def_416)))
(let ((.def_417 (or b.counter.2__AT2 .def_416)))
(let ((.def_415 (or .def_340 .def_345)))
(let ((.def_418 (and .def_415 .def_417)))
(let ((.def_419 (or .def_354 .def_418)))
(let ((.def_421 (and .def_419 .def_420)))
(let ((.def_427 (and .def_421 .def_426)))
(let ((.def_432 (and .def_427 .def_431)))
(let ((.def_410 (<= 0.0 b.delta__AT1)))
(let ((.def_241 (not b.EVENT.0__AT1)))
(let ((.def_239 (not b.EVENT.1__AT1)))
(let ((.def_279 (and .def_239 .def_241)))
(let ((.def_281 (not .def_279)))
(let ((.def_411 (or .def_281 .def_410)))
(let ((.def_412 (or b.EVENT.1__AT1 .def_411)))
(let ((.def_320 (= b.bool_atom__AT1 b.bool_atom__AT2)))
(let ((.def_316 (= b.counter.0__AT1 b.counter.0__AT2)))
(let ((.def_313 (= b.counter.1__AT1 b.counter.1__AT2)))
(let ((.def_310 (= b.counter.2__AT1 b.counter.2__AT2)))
(let ((.def_308 (= b.counter.3__AT1 b.counter.3__AT2)))
(let ((.def_311 (and .def_308 .def_310)))
(let ((.def_314 (and .def_311 .def_313)))
(let ((.def_317 (and .def_314 .def_316)))
(let ((.def_406 (and .def_317 .def_320)))
(let ((.def_407 (or .def_281 .def_406)))
(let ((.def_408 (or b.EVENT.1__AT1 .def_407)))
(let ((.def_395 (* .def_66 b.delta__AT1)))
(let ((.def_396 (* (- 1.0) b.speed_y__AT2)))
(let ((.def_399 (+ .def_396 .def_395)))
(let ((.def_400 (+ b.speed_y__AT1 .def_399)))
(let ((.def_401 (= .def_400 0.0 )))
(let ((.def_386 (* (- 1.0) b.y__AT2)))
(let ((.def_258 (* b.speed_y__AT1 b.delta__AT1)))
(let ((.def_390 (+ .def_258 .def_386)))
(let ((.def_256 (* b.delta__AT1 b.delta__AT1)))
(let ((.def_257 (* .def_69 .def_256)))
(let ((.def_391 (+ .def_257 .def_390)))
(let ((.def_392 (+ b.y__AT1 .def_391)))
(let ((.def_393 (= .def_392 0.0 )))
(let ((.def_299 (= b.x__AT1 b.x__AT2)))
(let ((.def_394 (and .def_299 .def_393)))
(let ((.def_402 (and .def_394 .def_401)))
(let ((.def_403 (or .def_281 .def_402)))
(let ((.def_302 (= b.y__AT1 b.y__AT2)))
(let ((.def_381 (and .def_299 .def_302)))
(let ((.def_305 (= b.speed_y__AT1 b.speed_y__AT2)))
(let ((.def_382 (and .def_305 .def_381)))
(let ((.def_378 (= b.delta__AT1 0.0 )))
(let ((.def_379 (and .def_279 .def_378)))
(let ((.def_380 (not .def_379)))
(let ((.def_383 (or .def_380 .def_382)))
(let ((.def_384 (or b.EVENT.1__AT1 .def_383)))
(let ((.def_371 (and .def_305 .def_317)))
(let ((.def_372 (or b.bool_atom__AT1 .def_371)))
(let ((.def_346 (or b.counter.0__AT1 .def_345)))
(let ((.def_344 (or .def_162 b.counter.0__AT2)))
(let ((.def_347 (and .def_344 .def_346)))
(let ((.def_348 (and .def_335 .def_347)))
(let ((.def_349 (or b.counter.1__AT1 .def_348)))
(let ((.def_152 (not b.counter.1__AT1)))
(let ((.def_343 (or .def_152 b.counter.1__AT2)))
(let ((.def_350 (and .def_343 .def_349)))
(let ((.def_362 (and .def_340 .def_350)))
(let ((.def_363 (or b.counter.2__AT1 .def_362)))
(let ((.def_357 (and .def_162 .def_335)))
(let ((.def_358 (or b.counter.1__AT1 .def_357)))
(let ((.def_359 (and .def_343 .def_358)))
(let ((.def_360 (and b.counter.2__AT2 .def_359)))
(let ((.def_361 (or .def_157 .def_360)))
(let ((.def_364 (and .def_361 .def_363)))
(let ((.def_365 (and b.counter.3__AT2 .def_364)))
(let ((.def_366 (or b.counter.3__AT1 .def_365)))
(let ((.def_351 (and b.counter.2__AT2 .def_350)))
(let ((.def_352 (or b.counter.2__AT1 .def_351)))
(let ((.def_338 (or b.counter.1__AT1 b.counter.1__AT2)))
(let ((.def_336 (and b.counter.0__AT2 .def_335)))
(let ((.def_337 (or .def_152 .def_336)))
(let ((.def_339 (and .def_337 .def_338)))
(let ((.def_341 (and .def_339 .def_340)))
(let ((.def_342 (or .def_157 .def_341)))
(let ((.def_353 (and .def_342 .def_352)))
(let ((.def_355 (and .def_353 .def_354)))
(let ((.def_171 (not b.counter.3__AT1)))
(let ((.def_356 (or .def_171 .def_355)))
(let ((.def_367 (and .def_356 .def_366)))
(let ((.def_148 (* b.speed_y__AT1 b.speed_y__AT1)))
(let ((.def_333 (= .def_148 .def_332)))
(let ((.def_330 (+ b.speed_y__AT1 b.speed_y__AT2)))
(let ((.def_331 (= .def_330 0.0 )))
(let ((.def_334 (and .def_331 .def_333)))
(let ((.def_368 (and .def_334 .def_367)))
(let ((.def_329 (not b.bool_atom__AT1)))
(let ((.def_369 (or .def_329 .def_368)))
(let ((.def_267 (<= 0.0 b.speed_y__AT1)))
(let ((.def_326 (not .def_267)))
(let ((.def_244 (* (- 1.0) b.x__AT1)))
(let ((.def_245 (* b.x__AT1 .def_244)))
(let ((.def_325 (= b.y__AT1 .def_245)))
(let ((.def_327 (and .def_325 .def_326)))
(let ((.def_328 (= b.bool_atom__AT1 .def_327)))
(let ((.def_370 (and .def_328 .def_369)))
(let ((.def_373 (and .def_370 .def_372)))
(let ((.def_374 (and .def_299 .def_373)))
(let ((.def_375 (and .def_302 .def_374)))
(let ((.def_376 (or .def_279 .def_375)))
(let ((.def_377 (or b.EVENT.1__AT1 .def_376)))
(let ((.def_385 (and .def_377 .def_384)))
(let ((.def_404 (and .def_385 .def_403)))
(let ((.def_286 (= b.time__AT1 b.time__AT2)))
(let ((.def_300 (and .def_286 .def_299)))
(let ((.def_303 (and .def_300 .def_302)))
(let ((.def_306 (and .def_303 .def_305)))
(let ((.def_318 (and .def_306 .def_317)))
(let ((.def_321 (and .def_318 .def_320)))
(let ((.def_322 (or .def_239 .def_321)))
(let ((.def_289 (* (- 1.0) b.time__AT2)))
(let ((.def_292 (+ b.delta__AT1 .def_289)))
(let ((.def_293 (+ b.time__AT1 .def_292)))
(let ((.def_294 (= .def_293 0.0 )))
(let ((.def_295 (or .def_281 .def_294)))
(let ((.def_296 (or b.EVENT.1__AT1 .def_295)))
(let ((.def_287 (or .def_279 .def_286)))
(let ((.def_288 (or b.EVENT.1__AT1 .def_287)))
(let ((.def_297 (and .def_288 .def_296)))
(let ((.def_323 (and .def_297 .def_322)))
(let ((.def_283 (= .def_281 b.event_is_timed__AT2)))
(let ((.def_280 (= b.event_is_timed__AT1 .def_279)))
(let ((.def_284 (and .def_280 .def_283)))
(let ((.def_324 (and .def_284 .def_323)))
(let ((.def_405 (and .def_324 .def_404)))
(let ((.def_409 (and .def_405 .def_408)))
(let ((.def_413 (and .def_409 .def_412)))
(let ((.def_414 (and .def_239 .def_413)))
(let ((.def_433 (and .def_414 .def_432)))
(let ((.def_437 (and .def_433 .def_436)))
(let ((.def_268 (* .def_82 b.delta__AT1)))
(let ((.def_269 (+ b.speed_y__AT1 .def_268)))
(let ((.def_273 (<= .def_269 0.0 )))
(let ((.def_272 (<= b.speed_y__AT1 0.0 )))
(let ((.def_274 (and .def_272 .def_273)))
(let ((.def_270 (<= 0.0 .def_269)))
(let ((.def_271 (and .def_267 .def_270)))
(let ((.def_275 (or .def_271 .def_274)))
(let ((.def_259 (+ .def_257 .def_258)))
(let ((.def_260 (* (- 1.0) .def_245)))
(let ((.def_263 (+ .def_260 .def_259)))
(let ((.def_264 (+ b.y__AT1 .def_263)))
(let ((.def_265 (<= 0.0 .def_264)))
(let ((.def_246 (<= .def_245 b.y__AT1)))
(let ((.def_266 (and .def_246 .def_265)))
(let ((.def_276 (and .def_266 .def_275)))
(let ((.def_277 (and .def_59 .def_276)))
(let ((.def_28 (not b.counter.0__AT0)))
(let ((.def_250 (or b.counter.1__AT0 .def_28)))
(let ((.def_31 (not b.counter.2__AT0)))
(let ((.def_251 (or .def_31 .def_250)))
(let ((.def_252 (or b.counter.3__AT0 .def_251)))
(let ((.def_247 (and .def_59 .def_246)))
(let ((.def_242 (or .def_239 .def_241)))
(let ((.def_232 (or .def_152 .def_162)))
(let ((.def_236 (or b.counter.3__AT1 .def_232)))
(let ((.def_233 (or b.counter.2__AT1 .def_232)))
(let ((.def_231 (or .def_157 .def_162)))
(let ((.def_234 (and .def_231 .def_233)))
(let ((.def_235 (or .def_171 .def_234)))
(let ((.def_237 (and .def_235 .def_236)))
(let ((.def_243 (and .def_237 .def_242)))
(let ((.def_248 (and .def_243 .def_247)))
(let ((.def_226 (<= 0.0 b.delta__AT0)))
(let ((.def_47 (not b.EVENT.0__AT0)))
(let ((.def_45 (not b.EVENT.1__AT0)))
(let ((.def_94 (and .def_45 .def_47)))
(let ((.def_96 (not .def_94)))
(let ((.def_227 (or .def_96 .def_226)))
(let ((.def_228 (or b.EVENT.1__AT0 .def_227)))
(let ((.def_136 (= b.bool_atom__AT0 b.bool_atom__AT1)))
(let ((.def_131 (= b.counter.0__AT0 b.counter.0__AT1)))
(let ((.def_128 (= b.counter.1__AT0 b.counter.1__AT1)))
(let ((.def_125 (= b.counter.2__AT0 b.counter.2__AT1)))
(let ((.def_123 (= b.counter.3__AT0 b.counter.3__AT1)))
(let ((.def_126 (and .def_123 .def_125)))
(let ((.def_129 (and .def_126 .def_128)))
(let ((.def_132 (and .def_129 .def_131)))
(let ((.def_222 (and .def_132 .def_136)))
(let ((.def_223 (or .def_96 .def_222)))
(let ((.def_224 (or b.EVENT.1__AT0 .def_223)))
(let ((.def_211 (* b.delta__AT0 .def_66)))
(let ((.def_212 (* (- 1.0) b.speed_y__AT1)))
(let ((.def_215 (+ .def_212 .def_211)))
(let ((.def_216 (+ b.speed_y__AT0 .def_215)))
(let ((.def_217 (= .def_216 0.0 )))
(let ((.def_203 (* (- 1.0) b.y__AT1)))
(let ((.def_72 (* b.delta__AT0 b.speed_y__AT0)))
(let ((.def_206 (+ .def_72 .def_203)))
(let ((.def_65 (* b.delta__AT0 b.delta__AT0)))
(let ((.def_70 (* .def_65 .def_69)))
(let ((.def_207 (+ .def_70 .def_206)))
(let ((.def_208 (+ b.y__AT0 .def_207)))
(let ((.def_209 (= .def_208 0.0 )))
(let ((.def_114 (= b.x__AT0 b.x__AT1)))
(let ((.def_210 (and .def_114 .def_209)))
(let ((.def_218 (and .def_210 .def_217)))
(let ((.def_219 (or .def_96 .def_218)))
(let ((.def_117 (= b.y__AT0 b.y__AT1)))
(let ((.def_198 (and .def_114 .def_117)))
(let ((.def_120 (= b.speed_y__AT0 b.speed_y__AT1)))
(let ((.def_199 (and .def_120 .def_198)))
(let ((.def_195 (= b.delta__AT0 0.0 )))
(let ((.def_196 (and .def_94 .def_195)))
(let ((.def_197 (not .def_196)))
(let ((.def_200 (or .def_197 .def_199)))
(let ((.def_201 (or b.EVENT.1__AT0 .def_200)))
(let ((.def_188 (and .def_120 .def_132)))
(let ((.def_189 (or b.bool_atom__AT0 .def_188)))
(let ((.def_163 (or b.counter.0__AT0 .def_162)))
(let ((.def_161 (or .def_28 b.counter.0__AT1)))
(let ((.def_164 (and .def_161 .def_163)))
(let ((.def_165 (and .def_152 .def_164)))
(let ((.def_166 (or b.counter.1__AT0 .def_165)))
(let ((.def_26 (not b.counter.1__AT0)))
(let ((.def_160 (or .def_26 b.counter.1__AT1)))
(let ((.def_167 (and .def_160 .def_166)))
(let ((.def_179 (and .def_157 .def_167)))
(let ((.def_180 (or b.counter.2__AT0 .def_179)))
(let ((.def_174 (and .def_28 .def_152)))
(let ((.def_175 (or b.counter.1__AT0 .def_174)))
(let ((.def_176 (and .def_160 .def_175)))
(let ((.def_177 (and b.counter.2__AT1 .def_176)))
(let ((.def_178 (or .def_31 .def_177)))
(let ((.def_181 (and .def_178 .def_180)))
(let ((.def_182 (and b.counter.3__AT1 .def_181)))
(let ((.def_183 (or b.counter.3__AT0 .def_182)))
(let ((.def_168 (and b.counter.2__AT1 .def_167)))
(let ((.def_169 (or b.counter.2__AT0 .def_168)))
(let ((.def_155 (or b.counter.1__AT0 b.counter.1__AT1)))
(let ((.def_153 (and b.counter.0__AT1 .def_152)))
(let ((.def_154 (or .def_26 .def_153)))
(let ((.def_156 (and .def_154 .def_155)))
(let ((.def_158 (and .def_156 .def_157)))
(let ((.def_159 (or .def_31 .def_158)))
(let ((.def_170 (and .def_159 .def_169)))
(let ((.def_172 (and .def_170 .def_171)))
(let ((.def_34 (not b.counter.3__AT0)))
(let ((.def_173 (or .def_34 .def_172)))
(let ((.def_184 (and .def_173 .def_183)))
(let ((.def_149 (* b.speed_y__AT0 b.speed_y__AT0)))
(let ((.def_150 (= .def_148 .def_149)))
(let ((.def_146 (+ b.speed_y__AT0 b.speed_y__AT1)))
(let ((.def_147 (= .def_146 0.0 )))
(let ((.def_151 (and .def_147 .def_150)))
(let ((.def_185 (and .def_151 .def_184)))
(let ((.def_145 (not b.bool_atom__AT0)))
(let ((.def_186 (or .def_145 .def_185)))
(let ((.def_81 (<= 0.0 b.speed_y__AT0)))
(let ((.def_142 (not .def_81)))
(let ((.def_52 (* (- 1.0) b.x__AT0)))
(let ((.def_53 (* b.x__AT0 .def_52)))
(let ((.def_141 (= b.y__AT0 .def_53)))
(let ((.def_143 (and .def_141 .def_142)))
(let ((.def_144 (= b.bool_atom__AT0 .def_143)))
(let ((.def_187 (and .def_144 .def_186)))
(let ((.def_190 (and .def_187 .def_189)))
(let ((.def_191 (and .def_114 .def_190)))
(let ((.def_192 (and .def_117 .def_191)))
(let ((.def_193 (or .def_94 .def_192)))
(let ((.def_194 (or b.EVENT.1__AT0 .def_193)))
(let ((.def_202 (and .def_194 .def_201)))
(let ((.def_220 (and .def_202 .def_219)))
(let ((.def_101 (= b.time__AT0 b.time__AT1)))
(let ((.def_115 (and .def_101 .def_114)))
(let ((.def_118 (and .def_115 .def_117)))
(let ((.def_121 (and .def_118 .def_120)))
(let ((.def_133 (and .def_121 .def_132)))
(let ((.def_137 (and .def_133 .def_136)))
(let ((.def_138 (or .def_45 .def_137)))
(let ((.def_104 (* (- 1.0) b.time__AT1)))
(let ((.def_107 (+ b.delta__AT0 .def_104)))
(let ((.def_108 (+ b.time__AT0 .def_107)))
(let ((.def_109 (= .def_108 0.0 )))
(let ((.def_110 (or .def_96 .def_109)))
(let ((.def_111 (or b.EVENT.1__AT0 .def_110)))
(let ((.def_102 (or .def_94 .def_101)))
(let ((.def_103 (or b.EVENT.1__AT0 .def_102)))
(let ((.def_112 (and .def_103 .def_111)))
(let ((.def_139 (and .def_112 .def_138)))
(let ((.def_98 (= .def_96 b.event_is_timed__AT1)))
(let ((.def_95 (= b.event_is_timed__AT0 .def_94)))
(let ((.def_99 (and .def_95 .def_98)))
(let ((.def_140 (and .def_99 .def_139)))
(let ((.def_221 (and .def_140 .def_220)))
(let ((.def_225 (and .def_221 .def_224)))
(let ((.def_229 (and .def_225 .def_228)))
(let ((.def_230 (and .def_45 .def_229)))
(let ((.def_249 (and .def_230 .def_248)))
(let ((.def_253 (and .def_249 .def_252)))
(let ((.def_83 (* b.delta__AT0 .def_82)))
(let ((.def_84 (+ b.speed_y__AT0 .def_83)))
(let ((.def_88 (<= .def_84 0.0 )))
(let ((.def_87 (<= b.speed_y__AT0 0.0 )))
(let ((.def_89 (and .def_87 .def_88)))
(let ((.def_85 (<= 0.0 .def_84)))
(let ((.def_86 (and .def_81 .def_85)))
(let ((.def_90 (or .def_86 .def_89)))
(let ((.def_73 (+ .def_70 .def_72)))
(let ((.def_74 (* (- 1.0) .def_53)))
(let ((.def_77 (+ .def_74 .def_73)))
(let ((.def_78 (+ b.y__AT0 .def_77)))
(let ((.def_79 (<= 0.0 .def_78)))
(let ((.def_54 (<= .def_53 b.y__AT0)))
(let ((.def_80 (and .def_54 .def_79)))
(let ((.def_91 (and .def_80 .def_90)))
(let ((.def_92 (and .def_59 .def_91)))
(let ((.def_60 (and .def_54 .def_59)))
(let ((.def_48 (or .def_45 .def_47)))
(let ((.def_38 (or .def_26 .def_28)))
(let ((.def_42 (or b.counter.3__AT0 .def_38)))
(let ((.def_39 (or b.counter.2__AT0 .def_38)))
(let ((.def_37 (or .def_28 .def_31)))
(let ((.def_40 (and .def_37 .def_39)))
(let ((.def_41 (or .def_34 .def_40)))
(let ((.def_43 (and .def_41 .def_42)))
(let ((.def_49 (and .def_43 .def_48)))
(let ((.def_61 (and .def_49 .def_60)))
(let ((.def_29 (and .def_26 .def_28)))
(let ((.def_32 (and .def_29 .def_31)))
(let ((.def_35 (and .def_32 .def_34)))
(let ((.def_23 (= b.y__AT0 10.0 )))
(let ((.def_19 (= b.x__AT0 0.0 )))
(let ((.def_15 (= b.time__AT0 0.0 )))
(let ((.def_17 (and .def_15 b.event_is_timed__AT0)))
(let ((.def_20 (and .def_17 .def_19)))
(let ((.def_24 (and .def_20 .def_23)))
(let ((.def_36 (and .def_24 .def_35)))
(let ((.def_62 (and .def_36 .def_61)))
(let ((.def_6 (or .def_4 b.counter.1__AT3)))
(let ((.def_9 (or .def_6 .def_8)))
(let ((.def_11 (or .def_9 b.counter.3__AT3)))
(let ((.def_12 (not .def_11)))
(let ((.def_63 (and .def_12 .def_62)))
(let ((.def_93 (and .def_63 .def_92)))
(let ((.def_254 (and .def_93 .def_253)))
(let ((.def_278 (and .def_254 .def_277)))
(let ((.def_438 (and .def_278 .def_437)))
(let ((.def_462 (and .def_438 .def_461)))
(let ((.def_616 (and .def_462 .def_615)))
(let ((.def_640 (and .def_616 .def_639)))
.def_640)))))))))))))))))))))))))))))))))))))))))))))))))))))))))))))))))))))))))))))))))))))))))))))))))))))))))))))))))))))))))))))))))))))))))))))))))))))))))))))))))))))))))))))))))))))))))))))))))))))))))))))))))))))))))))))))))))))))))))))))))))))))))))))))))))))))))))))))))))))))))))))))))))))))))))))))))))))))))))))))))))))))))))))))))))))))))))))))))))))))))))))))))))))))))))))))))))))))))))))))))))))))))))))))))))))))))))))))))))))))))))))))))))))))))))))))))))))))))))))))))))))))))))))))))))))))))))))))))))))))))))))))))))))))))))))))))))))))
(check-sat)
(exit)
